4224
1850
845
1355
4133
1582
463
673
2720
1452
2187
1451
1690
686
1624
3721
8687
591
6779
691
362
2355
436
2673
1471
2068
539
1877
580
912
961
1965
1684
497
1359
397
1352
1327
1054
1011
870
1186
2687
3083
724
527
766
1064
3737
5377
717
896
2640
856
515
1163
692
1427
1052
746
3989
968
4062
1166
1595
6389
2460
523
339
764
701
387
1709
780
1255
1917
1383
1728
1201
5012
1149
596
1691
1878
4625
457
1004
705
991
550
741
4758
2005
1976
403
1459
260
865
7549
932
